61 80
4 9 1
6 7 2
10 3 3
3 1 1
2 6 2
2 7 2
6 5 1
5 6 1
9 10 3
5 9 1
2 5 1
6 8 1
1 9 1
1 8 1
5 10 4
5 5 1
7 4 2
9 3 2
4 1 1
8 10 1
9 6 1
10 8 1
5 7 1
1 5 2
8 4 1
6 4 2
7 3 1
6 2 2
3 9 1
9 1 1
10 1 1
5 4 1
7 10 1
10 10 1
3 10 2
10 9 1
7 7 1
2 1 1
1 2 2
3 2 1
3 3 1
1 10 1
8 3 1
7 9 1
10 6 1
4 7 1
9 9 1
6 9 3
2 10 1
8 9 1
7 1 1
10 2 1
2 4 1
9 7 1
2 9 1
10 5 1
4 3 1
9 5 1
5 8 1
4 10 1
10 7 1
10 10 
10 10 
10 10 
10 10 
10 10 
10 10 
10 10 
10 10 
10 10 
10 10 
10 10 
10 10 
10 10 
10 10 
10 10 
10 10 
10 10 
10 10 
10 10 
10 10 
10 10 
10 10 
10 10 
10 10 
10 10 
10 10 
10 10 
10 10 
10 10 
10 10 
10 10 
10 10 
10 10 
10 10 
10 10 
10 10 
10 10 
10 10 
10 10 
10 10 
10 10 
10 10 
10 10 
10 10 
10 10 
10 10 
10 10 
10 10 
10 10 
10 10 
10 10 
10 10 
10 10 
10 10 
10 10 
10 10 
10 10 
10 10 
10 10 
10 10 
10 10 
10 10 
10 10 
10 10 
10 10 
10 10 
10 10 
10 10 
10 10 
10 10 
10 10 
10 10 
10 10 
10 10 
10 10 
10 10 
10 10 
10 10 
10 10 
10 10 
